
Gurobi 11.0.3 (linux64) logging started Wed Apr 15 20:15:59 2026

Set parameter LogFile to value "tree/results/ceva/ceva_depth-2_run-1/Full MIP/LogFile_FullModel.txt"
Gurobi Optimizer version 11.0.3 build v11.0.3rc0 (linux64 - "CentOS Linux 7 (Core)")

CPU model: Intel(R) Xeon(R) Platinum 8260 CPU @ 2.40GHz, instruction set [SSE2|AVX|AVX2|AVX512]
Thread count: 96 physical cores, 192 logical processors, using up to 32 threads

Optimize a model with 36513 rows, 31271 columns and 553681 nonzeros
Model fingerprint: 0xed70bc2b
Model has 5184 general constraints
Variable types: 15658 continuous, 15613 integer (15613 binary)
Coefficient statistics:
  Matrix range     [8e-04, 1e+04]
  Objective range  [8e-04, 1e+04]
  Bounds range     [1e+00, 1e+03]
  RHS range        [1e-04, 1e+03]

User MIP start produced solution with objective -110199 (0.14s)
Loaded user MIP start with objective -110199

Presolve added 5180 rows and 10368 columns
Presolve time: 0.56s
Presolved: 41693 rows, 41639 columns, 574409 nonzeros
Presolved model has 10368 SOS constraint(s)
Variable types: 15658 continuous, 25981 integer (25981 binary)

Deterministic concurrent LP optimizer: primal simplex, dual simplex, and barrier
Showing barrier log only...

Root relaxation presolved: 36509 rows, 36455 columns, 564041 nonzeros

Root barrier log...

Ordering time: 0.02s

Barrier statistics:
 Dense cols : 48
 AA' NZ     : 5.470e+05
 Factor NZ  : 1.261e+06 (roughly 40 MB of memory)
 Factor Ops : 4.372e+07 (less than 1 second per iteration)
 Threads    : 30

                  Objective                Residual
Iter       Primal          Dual         Primal    Dual     Compl     Time
   0  -1.24473379e+05  5.68831934e+09  1.50e+04 1.97e-14  1.06e+06     1s
   1  -7.90293690e+04  4.97409435e+09  2.87e+03 4.80e-09  3.25e+05     2s
   2  -5.43092420e+04  2.59388507e+09  2.87e+02 9.37e-09  4.80e+04     2s
   3  -1.18376719e+04  5.68308252e+08  2.68e+01 9.01e-09  6.73e+03     2s
   4  -1.18393516e+03  6.91341613e+07  1.67e+00 1.81e-10  7.29e+02     2s
   5  -1.17878340e+02  7.39462560e+06  1.67e-01 5.74e-11  7.53e+01     2s
   6  -1.12716353e+01  7.48423297e+05  1.70e-02 8.01e-13  7.57e+00     2s
   7  -6.00597455e-01  8.17219120e+04  1.92e-03 3.55e-15  8.26e-01     2s
   8   5.84032648e-01  1.57934386e+04  3.00e-04 8.88e-16  1.60e-01     2s
   9   9.09907385e-01  1.80083901e+03  2.98e-05 1.11e-16  1.82e-02     3s
  10   9.90452928e-01  1.87551513e+02  2.95e-06 6.94e-18  1.89e-03     3s
  11   9.99044973e-01  1.96582589e+01  2.92e-07 9.46e-17  1.89e-04     3s
  12   9.99904497e-01  2.86585611e+00  2.92e-08 4.15e-18  1.89e-05     3s
  13   9.99990449e-01  1.18658902e+00  2.90e-09 3.47e-18  1.89e-06     3s
  14   9.99999045e-01  1.01865890e+00  2.90e-10 6.94e-18  1.89e-07     3s
  15   9.99999904e-01  1.00186592e+00  2.87e-11 1.42e-14  1.89e-08     3s
  16   9.99999990e-01  1.00018659e+00  2.90e-12 3.47e-18  1.89e-09     3s
  17   9.99999999e-01  1.00001866e+00  3.69e-13 5.77e-23  1.89e-10     3s
  18   1.00000000e+00  1.00000187e+00  7.11e-14 6.94e-18  1.89e-11     3s
  19   1.00000000e+00  1.00000019e+00  5.68e-14 3.47e-18  1.89e-12     4s
  20   1.00000000e+00  1.00000002e+00  8.53e-14 3.47e-18  1.89e-13     4s

Barrier solved model in 20 iterations and 3.66 seconds (2.18 work units)
Optimal objective 1.00000000e+00

Concurrent spin time: 0.49s (can be avoided by choosing Method=3)

Solved with barrier

Root relaxation: objective 1.000000e+00, 5325 iterations, 3.20 seconds (1.78 work units)

    Nodes    |    Current Node    |     Objective Bounds      |     Work
 Expl Unexpl |  Obj  Depth IntInf | Incumbent    BestBd   Gap | It/Node Time

     0     0    1.00000    0 5186 -110199.26    1.00000   100%     -    5s
     0     2    1.00000    0 5186 -110199.26    1.00000   100%     -   89s
     1     4    1.00000    1 5186 -110199.26    1.00000   100%   207   93s
H    2     4                    -110199.2585    1.00000   100%   104   93s
     3     8    1.00000    2 5236 -110199.26    1.00000   100%   415  122s
    15    32    1.00000    4 5199 -110199.26    1.00000   100%   400  125s
H   32    64                       0.4745370    1.00000   111%   407  128s
H   35    64                       0.5655864    1.00000  76.8%   378  128s
    95   128    1.00000    6 5249    0.56559    1.00000  76.8%   173  189s
   127   160    1.00000    7 5220    0.56559    1.00000  76.8%   235  190s
   159   192    1.00000    7 5220    0.56559    1.00000  76.8%   193  404s
   191   224    1.00000    8 5219    0.56559    1.00000  76.8%   167  664s
   223   256    1.00000    8 5219    0.56559    1.00000  76.8%   179 1917s
   255   299    1.00000    9 5227    0.56559    1.00000  76.8%   165 2255s
   298   835    1.00000    9 5194    0.56559    1.00000  76.8%   182 2494s
   834  1738    1.00000   20 5172    0.56559    1.00000  76.8%   107 2704s
  1737  8935    1.00000   45 5147    0.56559    1.00000  76.8%  72.3 3058s
  8934 10248    1.00000  170 5019    0.56559    1.00000  76.8%  51.4 3172s
 10247 12029    1.00000  190 4998    0.56559    1.00000  76.8%  51.5 3415s
 12028 19821    1.00000  191 4995    0.56559    1.00000  76.8%  50.0 3600s

Explored 19820 nodes (1007519 simplex iterations) in 3601.07 seconds (6202.01 work units)
Thread count was 32 (of 192 available processors)

Solution count 4: 0.565586 0.474537 -110199 -110199 

Time limit reached
Best objective 5.655864197537e-01, best bound 1.000000000000e+00, gap 76.8076%

User-callback calls 2311707, time in user-callback 13.01 sec
